(set-logic HORN)
(declare-fun state (Int (Array Int Int) (Array Int Int) (Array Int Int) (Array Int Int) Int Int (Array Int Int) (Array Int Int) Int Int Int Int Int Int Int Int Int Int Int Int Int Int Int Int Int Int Int Int Int Int Int Int Int Int Int Int Int Int Int Int Bool Bool Bool Bool Bool Bool Int Int (Array Int Int)) Bool)
(assert (forall ((|A_8| Int) (|B_8| (Array Int Int)) (|C_8| (Array Int Int)) (|D_8| (Array Int Int)) (|E_8| (Array Int Int)) (|F_8| Int) (|G_8| Int) (|H_8| (Array Int Int)) (|I_8| (Array Int Int)) (|J_8| Int) (|K_8| Int) (|L_8| Int) (|M_8| Int) (|N_8| Int) (|O_8| Int) (|P_8| Int) (|Q_8| Int) (|R_8| Int) (|S_8| Int) (|T_8| Int) (|Q1_6| Int) (|V_8| Int) (|W_8| Int) (|X_8| Int) (|Y_8| Int) (|Z_8| Int) (|A1_8| Int) (|B1_8| Int) (|C1_8| Int) (|D1_8| Int) (|E1_8| Int) (|F1_8| Int) (|G1_8| Int) (|H1_8| Int) (|I1_8| Int) (|J1_8| Int) (|K1_8| Int) (|L1_8| Int) (|M1_8| Int) (|N1_8| Int) (|O1_8| Int) (|P1_8| Bool) (|.loc.6| Bool) (|.loc.7| Bool) (|.loc.8| Bool) (|.loc.9| Bool) (|.loc.10| Bool) (|W1_0| Int) (|S1_5| Int) (|Q1_0| (Array Int Int)) (|.x.467| Int) (|.x.465| (Array Int Int)) (|.x.463| Int) (|.x.461| (Array Int Int)) (|.x.457| Int) (|.x.459| (Array Int Int)) (|.x.477| Int) (|.x.470| Int) (|.x.495| Int) (|.x.498| Bool) (|.x.468| Int) (|.x.458| (Array Int Int)) (|.x.476| Int) (|.x.478| Int) (|.x.486| Int) (|.x.494| Int) (|.loc.11| Bool) (|.x.497| Int) (|.x.483| Int) (|.loc.12| Bool) (|.loc.13| Bool) (|.loc.15| Bool) (|.loc.14| Bool) (|.x.489| Int) (|.x.488| Int) (|.x.471| Int) (|.x.460| (Array Int Int)) (|.x.472| Int) (|.x.469| Int) (|.x.485| Int) (|.x.479| Int) (|.x.464| (Array Int Int)) (|.x.462| Int) (|.x.466| Int) (|.x.473| Int) (|.x.474| Int) (|.x.475| Int) (|.x.480| Int) (|.x.481| Int) (|.x.482| Int) (|.x.484| Int) (|.x.487| Int) (|.x.490| Int) (|.x.491| Int) (|.x.492| Int) (|.x.493| Int) (|.x.496| Int) (|.xtv.1| Int) (|.xtv.2| Int) (|.xtv.3| (Array Int Int))) (=> (and (and (and (and .loc.8 (and .loc.7 (not .loc.6))) (not .loc.9)) (not .loc.10)) (and (and (and (and (and (= D_8 E_8) (not P1_8)) (= F_8 G_8)) (= J_8 K_8)) (= H_8 I_8)) (= B_8 C_8))) (state |A_8| |B_8| |C_8| |D_8| |E_8| |F_8| |G_8| |H_8| |I_8| |J_8| |K_8| |L_8| |M_8| |N_8| |O_8| |P_8| |Q_8| |R_8| |S_8| |T_8| |Q1_6| |V_8| |W_8| |X_8| |Y_8| |Z_8| |A1_8| |B1_8| |C1_8| |D1_8| |E1_8| |F1_8| |G1_8| |H1_8| |I1_8| |J1_8| |K1_8| |L1_8| |M1_8| |N1_8| |O1_8| |P1_8| |.loc.6| |.loc.7| |.loc.8| |.loc.9| |.loc.10| |W1_0| |S1_5| |Q1_0|))))
(assert (forall ((|A_8| Int) (|B_8| (Array Int Int)) (|C_8| (Array Int Int)) (|D_8| (Array Int Int)) (|E_8| (Array Int Int)) (|F_8| Int) (|G_8| Int) (|H_8| (Array Int Int)) (|I_8| (Array Int Int)) (|J_8| Int) (|K_8| Int) (|L_8| Int) (|M_8| Int) (|N_8| Int) (|O_8| Int) (|P_8| Int) (|Q_8| Int) (|R_8| Int) (|S_8| Int) (|T_8| Int) (|Q1_6| Int) (|V_8| Int) (|W_8| Int) (|X_8| Int) (|Y_8| Int) (|Z_8| Int) (|A1_8| Int) (|B1_8| Int) (|C1_8| Int) (|D1_8| Int) (|E1_8| Int) (|F1_8| Int) (|G1_8| Int) (|H1_8| Int) (|I1_8| Int) (|J1_8| Int) (|K1_8| Int) (|L1_8| Int) (|M1_8| Int) (|N1_8| Int) (|O1_8| Int) (|P1_8| Bool) (|.loc.6| Bool) (|.loc.7| Bool) (|.loc.8| Bool) (|.loc.9| Bool) (|.loc.10| Bool) (|W1_0| Int) (|S1_5| Int) (|Q1_0| (Array Int Int)) (|.x.467| Int) (|.x.465| (Array Int Int)) (|.x.463| Int) (|.x.461| (Array Int Int)) (|.x.457| Int) (|.x.459| (Array Int Int)) (|.x.477| Int) (|.x.470| Int) (|.x.495| Int) (|.x.498| Bool) (|.x.468| Int) (|.x.458| (Array Int Int)) (|.x.476| Int) (|.x.478| Int) (|.x.486| Int) (|.x.494| Int) (|.loc.11| Bool) (|.x.497| Int) (|.x.483| Int) (|.loc.12| Bool) (|.loc.13| Bool) (|.loc.15| Bool) (|.loc.14| Bool) (|.x.489| Int) (|.x.488| Int) (|.x.471| Int) (|.x.460| (Array Int Int)) (|.x.472| Int) (|.x.469| Int) (|.x.485| Int) (|.x.479| Int) (|.x.464| (Array Int Int)) (|.x.462| Int) (|.x.466| Int) (|.x.473| Int) (|.x.474| Int) (|.x.475| Int) (|.x.480| Int) (|.x.481| Int) (|.x.482| Int) (|.x.484| Int) (|.x.487| Int) (|.x.490| Int) (|.x.491| Int) (|.x.492| Int) (|.x.493| Int) (|.x.496| Int) (|.xtv.1| Int) (|.xtv.2| Int) (|.xtv.3| (Array Int Int))) (=> (and (state |A_8| |B_8| |C_8| |D_8| |E_8| |F_8| |G_8| |H_8| |I_8| |J_8| |K_8| |L_8| |M_8| |N_8| |O_8| |P_8| |Q_8| |R_8| |S_8| |T_8| |Q1_6| |V_8| |W_8| |X_8| |Y_8| |Z_8| |A1_8| |B1_8| |C1_8| |D1_8| |E1_8| |F1_8| |G1_8| |H1_8| |I1_8| |J1_8| |K1_8| |L1_8| |M1_8| |N1_8| |O1_8| |P1_8| |.loc.6| |.loc.7| |.loc.8| |.loc.9| |.loc.10| |W1_0| |S1_5| |Q1_0|) (let ((.def_60 (not .loc.6))) (let ((.def_63 (not .loc.9))) (let ((.def_65 (not .loc.10))) (let ((.def_100 (= N_8 .x.470))) (let ((.def_103 (= M1_8 .x.495))) (let ((.def_106 (= P1_8 .x.498))) (let ((.def_110 (= .x.470 0))) (let ((.def_112 (not .loc.7))) (let ((.def_115 (= Q1_6 .x.477))) (let ((.def_139 (or P1_8 (and (= .x.495 (ite (= (+ M_8 (+ (* (- 1) X_8) (+ (* (- 4294967296) (to_int (* (/ 1 4294967296) (to_real M_8)))) (* 4294967296 (to_int (* (/ 1 4294967296) (to_real X_8))))))) 0) 1 0)) (= .x.470 .x.495))))) (let ((.def_143 (= L_8 .x.468))) (let ((.def_145 (= B_8 .x.458))) (let ((.def_146 (and .def_143 .def_145))) (let ((.def_148 (= T_8 .x.476))) (let ((.def_151 (= V_8 .x.478))) (let ((.def_152 (and (and .def_146 .def_148) .def_151))) (let ((.def_154 (= D1_8 .x.486))) (let ((.def_157 (= L1_8 .x.494))) (let ((.def_165 (= .x.458 (store (store B_8 T_8 0) V_8 0)))) (let ((.def_166 (= .x.494 0))) (let ((.def_170 (and .def_106 (and .def_100 .def_103)))) (let ((.def_174 (not .loc.11))) (let ((.def_179 (= O1_8 .x.497))) (let ((.def_183 (= W1_0 0))) (let ((.def_197 (select D_8 T_8))) (let ((.def_200 (or P1_8 (= W1_0 (select .def_197 (+ D1_8 4)))))) (let ((.def_203 (not .loc.8))) (let ((.def_205 (= A1_8 .x.483))) (let ((.def_210 (= A1_8 0))) (let ((.def_214 (and .def_151 (and .def_148 (and .def_100 .def_146))))) (let ((.def_219 (and .def_106 (and .def_179 (and .def_103 (and .def_157 (and .def_154 .def_214))))))) (let ((.def_227 (not .loc.12))) (let ((.def_268 (and P1_8 .def_145))) (let ((.def_274 (and .def_154 (and .def_205 (and .def_151 (and .def_148 (and .def_100 (and .def_143 .def_268)))))))) (let ((.def_289 (not .loc.13))) (let ((.def_293 (not .loc.14))) (let ((.def_299 (+ F1_8 (* (- 4294967296) (to_int (* (/ 1 4294967296) (to_real F1_8))))))) (let ((.def_305 (select .def_197 (+ D1_8 (ite (<= .def_299 2147483647) .def_299 (+ (- 4294967296) .def_299)))))) (let ((.def_318 (not .loc.15))) (let ((.def_323 (= G1_8 .x.489))) (let ((.def_325 (= F1_8 .x.488))) (let ((.def_329 (and .def_154 (and .def_205 .def_214)))) (let ((.def_347 (= (+ F1_8 (* (- 1) .x.488)) (- 1)))) (let ((.def_348 (or P1_8 .def_347))) (let ((.def_370 (<= 5 .def_299))) (let ((.def_392 (= O_8 .x.471))) (let ((.def_394 (= D_8 .x.460))) (let ((.def_397 (= P_8 .x.472))) (let ((.def_434 (= M_8 .x.469))) (let ((.def_437 (= .x.488 0))) (let ((.def_440 (and .def_145 .def_394))) (let ((.def_441 (and .def_143 .def_440))) (let ((.def_467 (and .def_268 .def_394))) (let ((.def_508 (and .def_106 (and .def_179 (and .def_103 (and .def_157 (and .def_323 (and .def_325 (and .def_154 (and .def_205 (and .def_151 (and .def_148 (and .def_397 (and .def_392 (and .def_100 (and .def_434 .def_441)))))))))))))))) (let ((.def_523 (+ W_8 (* (- 4294967296) (to_int (* (/ 1 4294967296) (to_real W_8))))))) (let ((.def_525 (<= 2 .def_523))) (let ((.def_526 (or P1_8 .def_525))) (let ((.def_530 (= C1_8 .x.485))) (let ((.def_532 (= W_8 .x.479))) (let ((.def_549 (or P1_8 (= (+ W_8 (* (- 1) .x.479)) (- 1))))) (let ((.def_553 (= H_8 .x.464))) (let ((.def_555 (= F_8 .x.462))) (let ((.def_558 (= J_8 .x.466))) (let ((.def_561 (= Q_8 .x.473))) (let ((.def_564 (= R_8 .x.474))) (let ((.def_567 (= S_8 .x.475))) (let ((.def_570 (= X_8 .x.480))) (let ((.def_573 (= Y_8 .x.481))) (let ((.def_576 (= Z_8 .x.482))) (let ((.def_579 (= B1_8 .x.484))) (let ((.def_582 (= E1_8 .x.487))) (let ((.def_585 (= H1_8 .x.490))) (let ((.def_588 (= I1_8 .x.491))) (let ((.def_591 (= J1_8 .x.492))) (let ((.def_594 (= K1_8 .x.493))) (let ((.def_597 (= N1_8 .x.496))) (let ((.def_625 (select .x.460 .x.478))) (let ((.def_632 (store Q1_0 .x.476 1))) (let ((.def_749 (and .def_106 (and .def_179 (and .def_597 (and .def_103 (and .def_157 (and .def_594 (and .def_591 (and .def_588 (and .def_585 (and .def_323 (and .def_325 (and .def_582 (and .def_154 (and .def_530 (and .def_579 (and .def_205 (and .def_576 (and .def_573 (and .def_570 (and .def_532 (and .def_151 (and .def_148 (and .def_567 (and .def_564 (and .def_561 (and .def_397 (and .def_392 (and .def_100 (and .def_434 (and .def_143 (and .def_558 (and .def_553 (and .def_467 .def_555))))))))))))))))))))))))))))))))))) (let ((.def_750 (and .loc.8 .def_749))) (let ((.def_773 (<= (+ E1_8 (+ (* (- 1) F1_8) (+ (* 4294967296 (to_int (* (/ 1 4294967296) (to_real F1_8)))) (* (- 4294967296) (to_int (* (/ 1 4294967296) (to_real E1_8))))))) 0))) (let ((.def_778 (and .def_143 (and .def_558 (and .def_553 (and .def_440 .def_555)))))) (let ((.def_782 (and .def_397 (and .def_392 (and .def_100 (and .def_434 .def_778)))))) (let ((.def_783 (and .def_561 .def_782))) (let ((.def_784 (and .def_564 .def_783))) (let ((.def_787 (and .def_151 (and .def_148 (and .def_567 .def_784))))) (let ((.def_788 (and .def_532 .def_787))) (let ((.def_789 (and .def_570 .def_788))) (let ((.def_795 (and .def_154 (and .def_530 (and .def_579 (and .def_205 (and .def_576 (and .def_573 .def_789)))))))) (let ((.def_799 (and .def_585 (and .def_323 (and .def_325 (and .def_582 .def_795)))))) (let ((.def_804 (and .def_103 (and .def_157 (and .def_594 (and .def_591 (and .def_588 .def_799))))))) (let ((.def_808 (and .loc.8 (and .def_106 (and .def_179 (and .def_597 .def_804)))))) (let ((.def_857 (= .x.479 0))) (let ((.def_862 (and .def_576 (and .def_573 (and .def_570 .def_787))))) (let ((.def_894 (= W1_0 S1_5))) (let ((.def_940 (= W1_0 (select (select D_8 V_8) (+ L_8 (ite (<= .def_523 2147483647) .def_523 (+ (- 4294967296) .def_523))))))) (let ((.def_941 (not .def_525))) (let ((.def_943 (= S1_5 .def_305))) (let ((.def_945 (or P1_8 (and (and .def_940 .def_941) .def_943)))) (let ((.def_977 (or .x.498 (not .def_894)))) (let ((.def_983 (and .def_573 .def_788))) (let ((.def_1013 (= N1_8 0))) (let ((.def_1016 (and .def_106 (and .def_179 .def_804)))) (let ((.def_1226 (or P1_8 (and .def_940 (and .def_941 .def_943))))) (and (and (= K_8 .x.467) (and (= I_8 .x.465) (and (= G_8 .x.463) (and (= E_8 .x.461) (and (= A_8 .x.457) (= C_8 .x.459)))))) (or (or (or (or (or (or (or (or (or (or (or (or (or (or (or (or (or (or (or (and (or (and (or (or (or (and (or (and (or (or (or (and (or (and (or (or (or (or (and (or (and (or (and (or (and .loc.7 (and (and (and (or P1_8 (= L1_8 .x.477)) .def_100) .def_103) .def_106)) (and (and (and (or P1_8 .def_110) (and .x.498 .def_112)) .def_115) .def_139)) (and (and .def_60 (and (and .def_152 .def_154) .def_157)) .loc.11)) (and (or P1_8 (and .def_165 .def_166)) (and (and .def_115 (and .def_112 (and .loc.6 .def_170))) .def_174))) (and .def_63 (and .loc.10 .def_179))) (and (and (or .x.498 (and .def_165 (and .def_166 (not .def_183)))) (and .def_65 (and .def_174 (and .def_115 (and .def_112 (and .def_60 (and .loc.9 .def_170))))))) .def_200)) (and (and .def_203 .def_205) .loc.12)) (and (or P1_8 .def_210) (and (and .def_65 (and .def_174 (and .def_115 (and .loc.9 (and .loc.8 (and .loc.7 (and .loc.6 .def_219))))))) .def_227))) (and (or .x.498 (not .def_110)) (and .def_227 (and .def_139 (and .def_115 (and .def_112 (and .loc.11 (and .def_63 (and .def_203 (and .def_60 (and .loc.10 (and .def_106 (and .def_179 (and .def_157 (and .def_154 (and .def_152 .def_205)))))))))))))))) (and .def_227 (and .def_139 (and .def_115 (and .def_112 (and .loc.11 (and .def_63 (and .def_203 (and .def_60 (and .loc.10 (and .def_179 (and .def_157 (and .def_154 (and .def_205 (and .def_151 (and .def_148 (and .def_143 (and .def_145 (and P1_8 .x.498))))))))))))))))))) (and .def_227 (and .def_65 (and .def_174 (and .def_115 (and .def_60 (and .loc.9 (and .loc.8 (and .loc.7 (and .def_106 (and .def_179 (and .def_103 (and .def_157 .def_274))))))))))))) (and (and .def_289 .loc.15) .def_293)) (and (or P1_8 (= .x.483 .def_305)) (and (and .def_65 (and .def_115 (and .loc.14 (and .loc.13 (and .loc.12 (and .loc.11 (and .def_60 (and .loc.9 (and .loc.8 (and .loc.7 .def_219)))))))))) .def_318))) (and .def_323 .def_325)) (and (and .def_318 (and .def_65 (and .def_174 (and .def_115 (and .loc.14 (and .loc.13 (and .loc.12 (and .def_63 (and .def_203 (and .def_60 (and .loc.7 (and .def_106 (and .def_179 (and .def_103 (and .def_157 .def_329))))))))))))))) .def_348)) (and .def_318 (and .def_227 (and .def_65 (and .def_174 (and .def_115 (and .def_289 (and .loc.14 (and .def_63 (and .loc.8 (and .loc.7 (and .loc.6 (and .def_106 (and .def_179 (and .def_103 (and .def_157 (and .def_323 (and .def_274 .def_325)))))))))))))))))) (and (or P1_8 .def_370) (and .def_318 (and .def_227 (and .def_65 (and .def_174 (and .def_115 (and .def_289 (and .loc.14 (and .def_63 (and .loc.8 (and .loc.7 (and .loc.6 (and .def_106 (and .def_179 (and .def_103 (and .def_157 (and .def_323 (and .def_325 .def_329))))))))))))))))))) (and (and .def_392 .def_394) .def_397)) (and (or P1_8 (and (= .x.460 (store D_8 T_8 (store .def_197 (+ D1_8 (ite (<= .def_299 2147483647) .def_299 (+ (- 4294967296) .def_299))) O_8))) (and (<= (- 128) O_8) (and (<= O_8 127) (not .def_370))))) (and (or .x.498 .def_347) (and .def_318 (and .def_65 (and .def_115 (and .def_293 (and .loc.13 (and .loc.12 (and .loc.11 (and .def_63 (and .loc.8 (and .loc.7 (and .loc.6 (and .def_106 (and .def_179 (and .def_103 (and .def_157 (and .def_323 .def_329))))))))))))))))))) .def_434) (and (or P1_8 (and (= .x.469 0) .def_437)) (and .def_318 (and .def_65 (and .def_174 (and .def_115 (and .def_112 (and .loc.14 (and .loc.13 (and .loc.12 (and .loc.9 (and .loc.8 (and .loc.6 (and .def_106 (and .def_179 (and .def_103 (and .def_157 (and .def_323 (and .def_154 (and .def_205 (and .def_151 (and .def_148 (and .def_397 (and .def_392 (and .def_100 .def_441))))))))))))))))))))))))) (and .def_318 (and .def_65 (and .def_174 (and .def_115 (and .def_112 (and .def_293 (and .def_289 (and .loc.12 (and .def_63 (and .def_203 (and .loc.6 (and .def_106 (and .def_179 (and .def_103 (and .def_157 (and .def_323 (and .def_325 (and .def_154 (and .def_205 (and .def_151 (and .def_148 (and .def_397 (and .def_392 (and .def_100 (and .def_434 (and .def_143 .def_467))))))))))))))))))))))))))) (and (and .def_318 (and .def_65 (and .def_174 (and .def_115 (and .def_112 (and .def_293 (and .def_289 (and .loc.12 (and .def_63 (and .def_203 (and .loc.6 .def_508))))))))))) .def_526)) (and .def_530 .def_532)) (and (and .def_318 (and .def_227 (and .def_65 (and .def_115 (and .def_112 (and .def_293 (and .def_289 (and .loc.11 (and .def_63 (and .def_203 (and .def_60 .def_508))))))))))) .def_549)) (and (and (and (and (and (and (and (and (and (and (and (and (and (and (and .def_553 .def_555) .def_558) .def_561) .def_564) .def_567) .def_570) .def_573) .def_576) .def_579) .def_582) .def_585) .def_588) .def_591) .def_594) .def_597)) (and (or P1_8 (and (and (= .x.466 0) (= .x.462 0)) (= Q1_0 (store B_8 0 0)))) (and (or .x.498 (and (and (and (and (and (and (and (and (and (and (and (and (and (and (and (and (and .def_437 (and (and (and (and (not (<= .x.457 .x.478)) (not (<= .x.457 .x.476))) (= .x.468 0)) (not (= .x.478 0))) (= .x.486 0))) (not (= .x.476 0))) (= (select .def_625 (+ .x.468 10)) 0)) (= (select Q1_0 .x.476) 0)) (= (select .def_632 .x.478) 0)) (= (select .def_625 (+ .x.468 1)) 65)) (= (select .def_625 (+ .x.468 5)) 73)) (= (select .def_625 (+ .x.468 9)) 85)) (= (select .def_625 (+ .x.468 8)) 117)) (= (select .def_625 (+ .x.468 4)) 105)) (= (select .def_625 (+ .x.468 2)) 101)) (= (select .def_625 (+ .x.468 6)) 111)) (= (select .def_625 .x.468) 97)) (= (select .def_625 (+ .x.468 3)) 69)) (= (select .def_625 (+ .x.468 7)) 79)) (= .x.464 (store (store H_8 .x.476 5) .x.478 11))) (= .x.458 (store .def_632 .x.478 1)))) (and .def_318 (and .def_65 (and .def_115 (and .def_293 (and .loc.13 (and .loc.12 (and .loc.11 (and .def_63 (and .def_60 (and .loc.8 (and .loc.7 (and .def_106 (and .def_103 (and .def_100 .def_394))))))))))))))))) (and .def_318 (and .def_227 (and .def_65 (and .def_115 (and .def_112 (and .loc.14 (and .loc.13 (and .loc.11 (and .def_60 (and .loc.9 .def_750))))))))))) (and (or P1_8 .def_773) (and .def_318 (and .def_227 (and .def_65 (and .def_115 (and .def_112 (and .loc.14 (and .loc.13 (and .loc.11 (and .def_60 (and .loc.9 .def_808)))))))))))) (and .def_348 (and .def_318 (and .def_227 (and .def_65 (and .def_174 (and .def_115 (and .def_112 (and .loc.14 (and .loc.13 (and .def_63 (and .loc.8 (and .loc.6 (and .def_106 (and .def_179 (and .def_597 (and .def_103 (and .def_157 (and .def_594 (and .def_591 (and .def_588 (and .def_585 (and .def_323 (and .def_582 (and .def_154 (and .def_530 (and .def_579 (and .def_205 (and .def_576 (and .def_573 (and .def_570 (and .def_532 (and .def_151 (and .def_148 (and .def_567 .def_783))))))))))))))))))))))))))))))))))) (and (or P1_8 (and (not .def_210) .def_857)) (and .def_318 (and .def_227 (and .def_65 (and .def_115 (and .def_293 (and .def_289 (and .loc.11 (and .loc.9 (and .loc.8 (and .loc.7 (and .loc.6 (and .def_106 (and .def_179 (and .def_597 (and .def_103 (and .def_157 (and .def_594 (and .def_591 (and .def_588 (and .def_585 (and .def_323 (and .def_325 (and .def_582 (and .def_154 (and .def_530 (and .def_579 .def_862)))))))))))))))))))))))))))) (and (and (or .x.498 (and (= (+ M_8 (* (- 1) .x.469)) (- 1)) .def_894)) (and .def_318 (and .def_227 (and .def_65 (and .def_174 (and .def_115 (and .def_112 (and .def_293 (and .def_289 (and .def_63 (and .def_203 (and .loc.6 (and .def_106 (and .def_179 (and .def_597 (and .def_103 (and .def_157 (and .def_594 (and .def_591 (and .def_588 (and .def_323 (and .def_325 (and .def_582 (and .def_154 (and .def_530 (and .def_205 (and .def_576 (and .def_570 (and .def_532 (and .def_151 (and .def_148 (and .def_567 (and .def_564 (and .def_561 (and .def_397 (and .def_392 (and .def_100 .def_778))))))))))))))))))))))))))))))))))))) .def_945)) (and (and .def_945 (and .def_318 (and .def_227 (and .def_65 (and .def_174 (and .def_115 (and .def_112 (and .def_293 (and .def_289 (and .def_63 (and .def_203 (and .loc.6 (and .def_106 (and .def_179 (and .def_597 (and .def_103 (and .def_157 (and .def_594 (and .def_591 (and .def_588 (and .def_585 (and .def_323 (and .def_325 (and .def_582 (and .def_154 (and .def_530 (and .def_205 (and .def_576 .def_789)))))))))))))))))))))))))))) .def_977)) (and (or P1_8 (and .def_437 (= .x.480 0))) (and .def_318 (and .def_227 (and .def_65 (and .def_174 (and .def_115 (and .loc.14 (and .loc.13 (and .def_203 (and .loc.9 (and .loc.7 (and .loc.6 (and .def_106 (and .def_179 (and .def_597 (and .def_103 (and .def_157 (and .def_594 (and .def_591 (and .def_588 (and .def_585 (and .def_323 (and .def_582 (and .def_154 (and .def_530 (and .def_579 (and .def_205 (and .def_576 .def_983))))))))))))))))))))))))))))) (and (or P1_8 .def_1013) (and .def_318 (and .def_65 (and .def_115 (and .def_289 (and .loc.14 (and .loc.12 (and .loc.11 (and .def_203 (and .def_60 (and .loc.9 (and .loc.7 .def_1016))))))))))))) (and .def_318 (and .def_227 (and .def_65 (and .def_115 (and .def_112 (and .def_293 (and .loc.13 (and .loc.11 (and .def_63 (and .def_60 .def_750))))))))))) (and .def_526 (and .def_318 (and .def_227 (and .def_65 (and .def_115 (and .def_112 (and .def_293 (and .loc.13 (and .loc.11 (and .def_63 (and .def_60 .def_808)))))))))))) (and .def_549 (and .def_318 (and .def_227 (and .def_65 (and .def_174 (and .def_115 (and .def_293 (and .loc.13 (and .def_63 (and .def_203 (and .loc.7 (and .loc.6 (and .def_106 (and .def_179 (and .def_597 (and .def_103 (and .def_157 (and .def_594 (and .def_591 (and .def_588 (and .def_585 (and .def_323 (and .def_325 (and .def_582 (and .def_154 (and .def_530 (and .def_579 (and .def_205 (and .def_576 (and .def_573 (and .def_570 (and .def_151 (and .def_148 (and .def_567 (and .def_564 .def_782)))))))))))))))))))))))))))))))))))) (and .def_318 (and .def_65 (and .def_115 (and .def_112 (and .def_289 (and .loc.14 (and .loc.12 (and .loc.11 (and .def_203 (and .loc.9 (and .loc.6 .def_749)))))))))))) (and (or P1_8 (= .x.496 (select .def_197 (+ D1_8 (ite (<= (+ E1_8 (* (- 4294967296) (to_int (* (/ 1 4294967296) (to_real E1_8))))) 2147483647) (+ E1_8 (* (- 4294967296) (to_int (* (/ 1 4294967296) (to_real E1_8))))) (+ (- 4294967296) (+ E1_8 (* (- 4294967296) (to_int (* (/ 1 4294967296) (to_real E1_8))))))))))) (and .def_318 (and .def_65 (and .def_174 (and .def_115 (and .def_112 (and .def_289 (and .loc.14 (and .loc.12 (and .def_203 (and .loc.9 (and .loc.6 .def_1016))))))))))))) (and (or P1_8 (and (= (+ E1_8 (* (- 1) .x.487)) (- 1)) (not .def_1013))) (and .def_318 (and .def_227 (and .def_65 (and .def_115 (and .def_289 (and .loc.14 (and .loc.11 (and .def_203 (and .def_60 (and .loc.9 (and .loc.7 (and .def_106 (and .def_179 (and .def_103 (and .def_157 (and .def_594 (and .def_591 (and .def_588 (and .def_585 (and .def_323 (and .def_325 (and .def_154 (and .def_530 (and .def_579 (and .def_205 (and .def_576 (and .def_573 (and .def_570 (and .def_532 (and .def_151 (and .def_148 .def_784))))))))))))))))))))))))))))))))) (and (or P1_8 (and .def_857 (not .def_773))) (and .def_318 (and .def_227 (and .def_65 (and .def_174 (and .def_115 (and .def_112 (and .def_293 (and .loc.13 (and .def_60 (and .loc.9 (and .loc.8 (and .def_106 (and .def_179 (and .def_597 (and .def_103 (and .def_157 (and .def_594 (and .def_591 (and .def_588 (and .def_585 (and .def_323 (and .def_325 (and .def_582 (and .def_154 (and .def_530 (and .def_579 (and .def_205 .def_862))))))))))))))))))))))))))))) (and (and (or .x.498 (and .def_894 (= (+ X_8 (* (- 1) .x.480)) (- 1)))) (and .def_318 (and .def_65 (and .def_115 (and .def_112 (and .def_293 (and .def_289 (and .loc.12 (and .loc.11 (and .def_63 (and .def_60 (and .loc.8 (and .def_106 (and .def_179 (and .def_597 (and .def_103 (and .def_157 (and .def_594 (and .def_585 (and .def_323 (and .def_325 (and .def_582 (and .def_154 (and .def_530 (and .def_579 (and .def_205 .def_983)))))))))))))))))))))))))) .def_1226)) (and .def_1226 (and .def_977 (and .def_318 (and .def_65 (and .def_115 (and .def_112 (and .def_293 (and .def_289 (and .loc.12 (and .loc.11 (and .def_63 (and .def_60 (and .loc.8 (and .def_106 (and .def_179 (and .def_597 (and .def_103 (and .def_157 (and .def_594 .def_799)))))))))))))))))))) (and (or .x.498 (and .def_183 (= .x.487 0))) (and .def_318 (and .def_227 (and .def_200 (and .def_65 (and .def_115 (and .def_112 (and .def_289 (and .loc.14 (and .loc.11 (and .def_203 (and .def_60 (and .loc.9 (and .def_106 (and .def_597 (and .def_103 (and .def_157 (and .def_594 (and .def_591 (and .def_588 (and .def_585 (and .def_323 (and .def_325 .def_795)))))))))))))))))))))))))))))))))))))))))))))))))))))))))))))))))))))))))))))))))))))))))))))))))))))))))))))))))))))))))))))))))) (state |.x.457| |.x.458| |.x.459| |.x.460| |.x.461| |.x.462| |.x.463| |.x.464| |.x.465| |.x.466| |.x.467| |.x.468| |.x.469| |.x.470| |.x.471| |.x.472| |.x.473| |.x.474| |.x.475| |.x.476| |.x.477| |.x.478| |.x.479| |.x.480| |.x.481| |.x.482| |.x.483| |.x.484| |.x.485| |.x.486| |.x.487| |.x.488| |.x.489| |.x.490| |.x.491| |.x.492| |.x.493| |.x.494| |.x.495| |.x.496| |.x.497| |.x.498| |.loc.11| |.loc.12| |.loc.13| |.loc.14| |.loc.15| |.xtv.1| |.xtv.2| |.xtv.3|))))
(assert (forall ((|A_8| Int) (|B_8| (Array Int Int)) (|C_8| (Array Int Int)) (|D_8| (Array Int Int)) (|E_8| (Array Int Int)) (|F_8| Int) (|G_8| Int) (|H_8| (Array Int Int)) (|I_8| (Array Int Int)) (|J_8| Int) (|K_8| Int) (|L_8| Int) (|M_8| Int) (|N_8| Int) (|O_8| Int) (|P_8| Int) (|Q_8| Int) (|R_8| Int) (|S_8| Int) (|T_8| Int) (|Q1_6| Int) (|V_8| Int) (|W_8| Int) (|X_8| Int) (|Y_8| Int) (|Z_8| Int) (|A1_8| Int) (|B1_8| Int) (|C1_8| Int) (|D1_8| Int) (|E1_8| Int) (|F1_8| Int) (|G1_8| Int) (|H1_8| Int) (|I1_8| Int) (|J1_8| Int) (|K1_8| Int) (|L1_8| Int) (|M1_8| Int) (|N1_8| Int) (|O1_8| Int) (|P1_8| Bool) (|.loc.6| Bool) (|.loc.7| Bool) (|.loc.8| Bool) (|.loc.9| Bool) (|.loc.10| Bool) (|W1_0| Int) (|S1_5| Int) (|Q1_0| (Array Int Int)) (|.x.467| Int) (|.x.465| (Array Int Int)) (|.x.463| Int) (|.x.461| (Array Int Int)) (|.x.457| Int) (|.x.459| (Array Int Int)) (|.x.477| Int) (|.x.470| Int) (|.x.495| Int) (|.x.498| Bool) (|.x.468| Int) (|.x.458| (Array Int Int)) (|.x.476| Int) (|.x.478| Int) (|.x.486| Int) (|.x.494| Int) (|.loc.11| Bool) (|.x.497| Int) (|.x.483| Int) (|.loc.12| Bool) (|.loc.13| Bool) (|.loc.15| Bool) (|.loc.14| Bool) (|.x.489| Int) (|.x.488| Int) (|.x.471| Int) (|.x.460| (Array Int Int)) (|.x.472| Int) (|.x.469| Int) (|.x.485| Int) (|.x.479| Int) (|.x.464| (Array Int Int)) (|.x.462| Int) (|.x.466| Int) (|.x.473| Int) (|.x.474| Int) (|.x.475| Int) (|.x.480| Int) (|.x.481| Int) (|.x.482| Int) (|.x.484| Int) (|.x.487| Int) (|.x.490| Int) (|.x.491| Int) (|.x.492| Int) (|.x.493| Int) (|.x.496| Int) (|.xtv.1| Int) (|.xtv.2| Int) (|.xtv.3| (Array Int Int))) (=> (state |A_8| |B_8| |C_8| |D_8| |E_8| |F_8| |G_8| |H_8| |I_8| |J_8| |K_8| |L_8| |M_8| |N_8| |O_8| |P_8| |Q_8| |R_8| |S_8| |T_8| |Q1_6| |V_8| |W_8| |X_8| |Y_8| |Z_8| |A1_8| |B1_8| |C1_8| |D1_8| |E1_8| |F1_8| |G1_8| |H1_8| |I1_8| |J1_8| |K1_8| |L1_8| |M1_8| |N1_8| |O1_8| |P1_8| |.loc.6| |.loc.7| |.loc.8| |.loc.9| |.loc.10| |W1_0| |S1_5| |Q1_0|) (not (and P1_8 (and .loc.10 (and (not .loc.9) (and (not .loc.8) (and .loc.6 .loc.7)))))))))
(check-sat)
